# Solution for model GasLib-40
# Objective value = 6.8313759945546025e+01
loadshed[innode_1] 0
loadshed[innode_2] 0
loadshed[innode_3] 0
loadshed[innode_4] 0
loadshed[innode_5] 0
loadshed[innode_6] 0
loadshed[innode_7] 0
loadshed[innode_8] 0
loadshed[source_1] -7.9309674587046741e-02
loadshed[source_2] 2.5551288580617049e-01
loadshed[source_3] 2.5591545481010247e-01
loadshed[sink_1] 1
loadshed[sink_2] 0
loadshed[sink_3] 0
loadshed[sink_4] 0
loadshed[sink_5] 0
loadshed[sink_6] 0
loadshed[sink_7] 0
loadshed[sink_8] 0
loadshed[sink_9] 0
loadshed[sink_10] 0
loadshed[sink_11] 0
loadshed[sink_12] 1
loadshed[sink_13] 0
loadshed[sink_14] 0
loadshed[sink_15] 0
loadshed[sink_16] 0
loadshed[sink_17] 0
loadshed[sink_18] 0
loadshed[sink_19] 0
loadshed[sink_20] 0
loadshed[sink_21] 1
loadshed[sink_22] 2.2009124840895353e-01
loadshed[sink_23] 0
loadshed[sink_24] 9.5705585654163083e-01
loadshed[sink_25] 0
loadshed[sink_26] 0
loadshed[sink_27] 0
loadshed[sink_28] 0
loadshed[sink_29] 0
flow[source_1,sink_3] 1.7062836626370915e+02
flow[innode_1,sink_16] 1.6354166666666970e+01
flow[innode_6,sink_13] -3.1533657725568034e+00
flow[sink_13,sink_14] -1.9507532439223471e+01
flow[sink_14,sink_10] -3.5861699105890139e+01
flow[sink_25,sink_26] 0
flow[sink_26,sink_9] 3.2708333333334551e+01
flow[sink_9,sink_18] 1.6354166666667879e+01
flow[sink_26,sink_4] -4.9062500000001265e+01
flow[sink_4,sink_20] -8.7393327165743528e+01
flow[sink_18,sink_6] 0
flow[sink_25,innode_8] -1.3792003293037280e+02
flow[sink_6,sink_7] -2.9108924374978574e+01
flow[sink_6,sink_22] 1.2754757708311907e+01
flow[sink_7,sink_24] 7.0231567947541040e-01
flow[sink_22,sink_1] 0
flow[sink_24,sink_21] 0
flow[sink_21,sink_12] 0
flow[sink_7,sink_5] -4.6165406721120647e+01
flow[sink_5,sink_17] -6.2519573387787318e+01
flow[sink_17,sink_4] -2.1976660499075592e+01
flow[sink_17,sink_8] -5.6897079555378312e+01
flow[sink_3,sink_23] 16.3541666666697
flow[sink_8,sink_20] -7.3251246222044983e+01
flow[sink_25,sink_20] 1.7699874005445514e+02
flow[sink_25,sink_15] -52.279508018193
flow[sink_15,sink_29] -8.4987841351543921e+01
flow[sink_29,sink_28] 1.6354166666667879e+01
flow[sink_29,sink_2] 0
flow[sink_2,sink_15] -1.6354166666684250e+01
flow[sink_29,innode_7] -1.1769617468487867e+02
flow[innode_4,sink_19] 4.5534444186362265e+01
flow[sink_19,innode_3] 4.1442650698824991e+01
flow[innode_4,innode_5] 7.2098088252860080e+01
flow[sink_27,innode_5] -7.2098088252860080e+01
flow[sink_27,sink_19] 5.5743921586193409e+01
flow[sink_10,sink_11] 3.2708333333333641e+01
flow[sink_10,innode_2] -4.3481548407065453e+01
flow[sink_10,innode_3] -4.1442650698824991e+01
flow[innode_6,sink_25] 3.1533657725568034e+00
flow[sink_11,innode_1] 1.6354166666666970e+01
flow[sink_19,innode_2] 4.3481548407065453e+01
flow[source_3,innode_4] 1.1763253243922235e+02
flow[source_2,innode_7] 1.1769617468487867e+02
flow[sink_3,innode_8] 1.3792003293037280e+02
pressure[innode_1] 7.6718652917991918e+01
pressure[innode_2] 79.1685336435854
pressure[innode_3] 7.9076763586483963e+01
pressure[innode_4] 81.01325
pressure[innode_5] 8.0963657133155721e+01
pressure[innode_6] 75.1218518434461
pressure[innode_7] 81.01325
pressure[innode_8] 8.0442904553978934e+01
pressure[source_1] 81.01325
pressure[source_2] 81.01325
pressure[source_3] 81.01325
pressure[sink_1] 1.01325
pressure[sink_2] 75.322065649862
pressure[sink_3] 8.0442904553978934e+01
pressure[sink_4] 2.6514312575364215e+01
pressure[sink_5] 2.1017180763953512e+01
pressure[sink_6] 1.4177529761589671e+00
pressure[sink_7] 1.8173491226532499e+00
pressure[sink_8] 2.7821311703489815e+01
pressure[sink_9] 1.8318701178060863e+01
pressure[sink_10] 7.6870354225595463e+01
pressure[sink_11] 7.6718652917991918e+01
pressure[sink_12] 1.01325
pressure[sink_13] 7.5139235821973827e+01
pressure[sink_14] 7.5174146212948159e+01
pressure[sink_15] 7.5375458399628442e+01
pressure[sink_16] 7.5697003083174238e+01
pressure[sink_17] 2.5674437076887525e+01
pressure[sink_18] 1.7726958684261160e+01
pressure[sink_19] 79.1685336435854
pressure[sink_20] 3.2925893413036611e+01
pressure[sink_21] 1.01325
pressure[sink_22] 1.01325
pressure[sink_23] 8.0278186542319148e+01
pressure[sink_24] 1.01325
pressure[sink_25] 75.1218518434461
pressure[sink_26] 2.0276379345945472e+01
pressure[sink_27] 80.3653762235994
pressure[sink_28] 7.7570056127796917e+01
pressure[sink_29] 7.7865338401414093e+01
interdiction[source_1,sink_3] 0
interdiction[innode_1,sink_16] 0
interdiction[innode_6,sink_13] 0
interdiction[sink_13,sink_14] 0
interdiction[sink_14,sink_10] 0
interdiction[sink_25,sink_26] 1
interdiction[sink_26,sink_9] 0
interdiction[sink_9,sink_18] 0
interdiction[sink_26,sink_4] 0
interdiction[sink_4,sink_20] 0
interdiction[sink_18,sink_6] 1
interdiction[sink_25,innode_8] 0
interdiction[sink_6,sink_7] 0
interdiction[sink_6,sink_22] 0
interdiction[sink_7,sink_24] 0
interdiction[sink_22,sink_1] 0
interdiction[sink_24,sink_21] 0
interdiction[sink_21,sink_12] 0
interdiction[sink_7,sink_5] 0
interdiction[sink_5,sink_17] 0
interdiction[sink_17,sink_4] 0
interdiction[sink_17,sink_8] 0
interdiction[sink_3,sink_23] 0
interdiction[sink_8,sink_20] 0
interdiction[sink_25,sink_20] 0
interdiction[sink_25,sink_15] 0
interdiction[sink_15,sink_29] 0
interdiction[sink_29,sink_28] 0
interdiction[sink_29,sink_2] 1
interdiction[sink_2,sink_15] 0
interdiction[sink_29,innode_7] 0
interdiction[innode_4,sink_19] 0
interdiction[sink_19,innode_3] 0
interdiction[innode_4,innode_5] 0
interdiction[sink_27,innode_5] 0
interdiction[sink_27,sink_19] 0
interdiction[sink_10,sink_11] 0
interdiction[sink_10,innode_2] 0
interdiction[sink_10,innode_3] 0
interdiction[innode_6,sink_25] 0
interdiction[sink_11,innode_1] 0
interdiction[sink_19,innode_2] 0
interdiction[source_3,innode_4] 0
interdiction[source_2,innode_7] 0
interdiction[sink_3,innode_8] 0
WCcheckFlow[source_1,sink_3] 39
WCcheckFlow[innode_1,sink_16] 1
WCcheckFlow[innode_6,sink_13] 13
WCcheckFlow[sink_13,sink_14] 12
WCcheckFlow[sink_14,sink_10] 11
WCcheckFlow[sink_25,sink_26] 0
WCcheckFlow[sink_26,sink_9] 2
WCcheckFlow[sink_9,sink_18] 1
WCcheckFlow[sink_26,sink_4] -3
WCcheckFlow[sink_4,sink_20] -14
WCcheckFlow[sink_18,sink_6] 0
WCcheckFlow[sink_25,innode_8] -36
WCcheckFlow[sink_6,sink_7] -3
WCcheckFlow[sink_6,sink_22] 2
WCcheckFlow[sink_7,sink_24] 3
WCcheckFlow[sink_22,sink_1] 1
WCcheckFlow[sink_24,sink_21] 2
WCcheckFlow[sink_21,sink_12] 1
WCcheckFlow[sink_7,sink_5] -7
WCcheckFlow[sink_5,sink_17] -8
WCcheckFlow[sink_17,sink_4] -10
WCcheckFlow[sink_17,sink_8] 1
WCcheckFlow[sink_3,sink_23] 1
WCcheckFlow[sink_8,sink_20] 0
WCcheckFlow[sink_25,sink_20] 15
WCcheckFlow[sink_25,sink_15] 6
WCcheckFlow[sink_15,sink_29] 4
WCcheckFlow[sink_29,sink_28] 1
WCcheckFlow[sink_29,sink_2] 0
WCcheckFlow[sink_2,sink_15] -1
WCcheckFlow[sink_29,innode_7] 2
WCcheckFlow[innode_4,sink_19] -4
WCcheckFlow[sink_19,innode_3] -5
WCcheckFlow[innode_4,innode_5] 2
WCcheckFlow[sink_27,innode_5] -1
WCcheckFlow[sink_27,sink_19] 0
WCcheckFlow[sink_10,sink_11] 3
WCcheckFlow[sink_10,innode_2] 1
WCcheckFlow[sink_10,innode_3] 6
WCcheckFlow[innode_6,sink_25] -14
WCcheckFlow[sink_11,innode_1] 2
WCcheckFlow[sink_19,innode_2] 0
WCcheckFlow[source_3,innode_4] -1
WCcheckFlow[source_2,innode_7] -1
WCcheckFlow[sink_3,innode_8] 37
